127
1 4 2 22 47 114
2 4 1 92 113 114
3 2 25 103
4 3 9 43 89
5 5 7 8 33 82 99
6 8 13 20 24 27 31 58 108 109
7 4 5 8 33 122
8 6 5 7 57 81 82 122
9 6 4 12 20 26 43 107
10 3 48 115 118
11 6 35 36 94 110 125 126
12 5 9 20 43 65 66
13 3 6 24 108
14 4 15 28 63 87
15 9 14 28 31 63 80 81 83 84 87
16 5 17 25 28 75 112
17 6 16 28 62 85 96 112
18 6 21 33 42 78 93 121
19 8 30 38 39 66 89 95 97 98
20 9 6 9 12 24 26 27 43 65 68
21 5 18 33 56 78 99
22 6 1 42 47 50 79 104
23 5 56 60 69 78 86
24 7 6 13 20 26 68 102 108
25 5 3 16 75 103 112
26 8 9 20 24 45 68 102 107 111
27 6 6 20 58 64 65 71
28 8 14 15 16 17 62 63 75 84
29 7 32 41 92 100 113 123 124
30 6 19 37 66 71 95 98
31 7 6 15 58 81 87 109 117
32 5 29 74 76 100 124
33 7 5 7 18 21 93 99 122
34 7 37 56 60 61 95 97 101
35 2 11 36
36 7 11 35 44 46 110 111 127
37 6 30 34 56 71 95 99
38 4 19 39 61 97
39 3 19 38 61
40 4 49 50 54 96
41 5 29 48 77 92 123
42 6 18 22 47 93 104 121
43 6 4 9 12 20 66 89
44 4 36 45 46 111
45 5 26 44 46 107 111
46 4 36 44 45 107
47 8 1 22 42 51 59 114 119 121
48 5 10 41 77 118 123
49 2 40 54
50 7 22 40 54 79 85 96 104
51 5 47 59 72 77 119
52 3 53 83 106
53 5 52 75 83 84 103
54 3 40 49 50
55 4 67 105 109 116
56 7 21 23 34 37 60 78 99
57 7 8 62 63 80 81 91 122
58 7 6 27 31 64 81 82 117
59 6 47 51 69 72 78 121
60 5 23 34 56 86 101
61 4 34 38 39 97
62 7 17 28 57 63 85 91 120
63 6 14 15 28 57 62 80
64 5 27 58 71 82 117
65 5 12 20 27 66 71
66 8 12 19 30 43 65 71 89 98
67 3 55 88 109
68 3 20 24 26
69 7 23 59 70 72 78 86 90
70 6 69 86 90 101 115 118
71 8 27 30 37 64 65 66 82 99
72 6 51 59 69 77 90 118
73 1 74
74 4 32 73 76 124
75 6 16 25 28 53 84 103
76 3 32 74 100
77 7 41 48 51 72 92 118 119
78 7 18 21 23 56 59 69 121
79 2 22 50
80 4 15 57 63 81
81 8 8 15 31 57 58 80 82 117
82 7 5 8 58 64 71 81 99
83 7 15 52 53 84 87 105 106
84 5 15 28 53 75 83
85 6 17 50 62 96 104 120
86 5 23 60 69 70 101
87 6 14 15 31 83 105 109
88 5 67 94 108 109 126
89 4 4 19 43 66
90 4 69 70 72 118
91 5 57 62 93 120 122
92 7 2 29 41 77 113 114 119
93 7 18 33 42 91 104 120 122
94 6 11 88 102 108 110 126
95 5 19 30 34 37 97
96 5 17 40 50 85 112
97 5 19 34 38 61 95
98 3 19 30 66
99 7 5 21 33 37 56 71 82
100 4 29 32 76 113
101 5 34 60 70 86 115
102 6 24 26 94 108 110 111
103 4 3 25 53 75
104 6 22 42 50 85 93 120
105 6 55 83 87 106 109 116
106 3 52 83 105
107 4 9 26 45 46
108 7 6 13 24 88 94 102 109
109 8 6 31 55 67 87 88 105 108
110 6 11 36 94 102 111 127
111 7 26 36 44 45 102 110 127
112 4 16 17 25 96
113 4 2 29 92 100
114 5 1 2 47 92 119
115 4 10 70 101 118
116 2 55 105
117 4 31 58 64 81
118 7 10 48 70 72 77 90 115
119 5 47 51 77 92 114
120 5 62 85 91 93 104
121 5 18 42 47 59 78
122 6 7 8 33 57 91 93
123 4 29 41 48 124
124 4 29 32 74 123
125 2 11 126
126 4 11 88 94 125
127 3 36 110 111
